c FILE /home/rafael/Documents/HappySet/MIHS/inputs/happygen/output/graph_scale_free_k20_p0.3_v100_20241127_083928.txt
c SOURCE This is a scale-free graph formed for the happy graph colouring problem.
c DESCRIPTION It was generated using the problem generator of Rhyd Lewis
c
c GRAPH STATS
c Seed                             = 2104799576
c Number of Nodes                  = 100
c Number of colours k              = 20
c Number of pre-assignments        = 30
c Number of links per new node     = 5
c Density                          = 0.0979798
c 
c The degrees of nodes 1 to 100, respectively, are as follows 
c [35, 33, 31, 29, 28, 25, 24, 22, 22, 19, 18, 18, 17, 17, 17, 15, 13, 13, 13, 12, 12, 11, 11, 10, 10, 10, 
c  10, 10, 10, 10, 9, 9, 9, 9, 9, 9, 9, 8, 8, 8, 8, 8, 8, 8, 8, 7, 7, 7, 7, 7, 7, 
c  7, 7, 7, 7, 7, 7, 6, 6, 6, 6, 6, 6, 6, 6, 6, 6, 6, 6, 6, 6, 6, 6, 6, 6, 6, 
c  5, 5, 5, 5, 5, 5, 5, 5, 5, 5, 5, 5, 5, 5, 5, 5, 5, 5, 5, 5, 5, 5, 5, 5] 
c  
p edge 100 485 20
e 1 2
e 1 3
e 1 4
e 1 6
e 1 7
e 1 8
e 1 9
e 1 10
e 1 12
e 1 13
e 1 14
e 1 15
e 1 17
e 1 18
e 1 19
e 1 22
e 1 24
e 1 26
e 1 27
e 1 28
e 1 30
e 1 33
e 1 35
e 1 38
e 1 40
e 1 43
e 1 50
e 1 65
e 1 67
e 1 77
e 1 82
e 1 88
e 1 89
e 1 93
e 1 95
e 2 3
e 2 4
e 2 5
e 2 6
e 2 7
e 2 8
e 2 9
e 2 11
e 2 12
e 2 13
e 2 14
e 2 17
e 2 19
e 2 22
e 2 24
e 2 25
e 2 27
e 2 29
e 2 37
e 2 41
e 2 46
e 2 47
e 2 49
e 2 50
e 2 51
e 2 65
e 2 66
e 2 68
e 2 69
e 2 74
e 2 94
e 2 98
e 3 4
e 3 7
e 3 8
e 3 11
e 3 14
e 3 16
e 3 21
e 3 24
e 3 30
e 3 34
e 3 38
e 3 42
e 3 43
e 3 47
e 3 48
e 3 52
e 3 55
e 3 58
e 3 59
e 3 64
e 3 67
e 3 71
e 3 75
e 3 78
e 3 80
e 3 84
e 3 87
e 3 90
e 3 100
e 4 5
e 4 6
e 4 7
e 4 8
e 4 10
e 4 13
e 4 14
e 4 18
e 4 19
e 4 22
e 4 24
e 4 28
e 4 31
e 4 36
e 4 39
e 4 45
e 4 59
e 4 62
e 4 63
e 4 65
e 4 78
e 4 81
e 4 84
e 4 88
e 4 93
e 4 98
e 5 6
e 5 7
e 5 11
e 5 12
e 5 13
e 5 14
e 5 18
e 5 20
e 5 22
e 5 29
e 5 30
e 5 31
e 5 36
e 5 41
e 5 48
e 5 56
e 5 57
e 5 59
e 5 61
e 5 63
e 5 66
e 5 76
e 5 81
e 5 86
e 5 87
e 5 92
e 6 7
e 6 8
e 6 9
e 6 10
e 6 12
e 6 13
e 6 15
e 6 23
e 6 25
e 6 26
e 6 29
e 6 31
e 6 32
e 6 49
e 6 53
e 6 61
e 6 70
e 6 71
e 6 85
e 6 86
e 6 95
e 7 8
e 7 11
e 7 13
e 7 18
e 7 19
e 7 22
e 7 28
e 7 40
e 7 55
e 7 58
e 7 60
e 7 61
e 7 62
e 7 76
e 7 80
e 7 85
e 7 87
e 7 91
e 8 15
e 8 17
e 8 20
e 8 23
e 8 25
e 8 27
e 8 35
e 8 39
e 8 41
e 8 67
e 8 75
e 8 76
e 8 84
e 8 92
e 8 93
e 8 99
e 9 11
e 9 14
e 9 17
e 9 22
e 9 30
e 9 36
e 9 37
e 9 42
e 9 44
e 9 47
e 9 54
e 9 58
e 9 60
e 9 62
e 9 64
e 9 78
e 9 89
e 9 91
e 9 94
e 10 11
e 10 12
e 10 13
e 10 23
e 10 34
e 10 35
e 10 44
e 10 50
e 10 57
e 10 64
e 10 72
e 10 77
e 10 87
e 10 89
e 10 91
e 10 100
e 11 15
e 11 19
e 11 25
e 11 28
e 11 38
e 11 41
e 11 46
e 11 51
e 11 52
e 11 56
e 11 80
e 11 86
e 12 17
e 12 26
e 12 27
e 12 32
e 12 40
e 12 45
e 12 50
e 12 60
e 12 62
e 12 75
e 12 88
e 12 96
e 12 98
e 13 15
e 13 16
e 13 29
e 13 33
e 13 45
e 13 59
e 13 66
e 13 70
e 13 82
e 13 95
e 14 18
e 14 48
e 14 49
e 14 51
e 14 54
e 14 61
e 14 63
e 14 72
e 14 79
e 14 85
e 14 90
e 15 16
e 15 20
e 15 23
e 15 24
e 15 35
e 15 38
e 15 40
e 15 44
e 15 46
e 15 47
e 15 59
e 15 64
e 16 18
e 16 20
e 16 25
e 16 26
e 16 28
e 16 46
e 16 48
e 16 49
e 16 60
e 16 82
e 16 91
e 16 96
e 17 21
e 17 38
e 17 39
e 17 47
e 17 61
e 17 78
e 17 80
e 17 94
e 18 20
e 18 21
e 18 30
e 18 31
e 18 68
e 18 79
e 18 88
e 19 29
e 19 42
e 19 43
e 19 44
e 19 65
e 19 74
e 19 86
e 19 98
e 20 23
e 20 46
e 20 49
e 20 51
e 20 62
e 20 67
e 20 69
e 21 30
e 21 42
e 21 56
e 21 69
e 21 72
e 21 80
e 21 83
e 21 92
e 21 93
e 22 23
e 22 26
e 22 55
e 22 67
e 22 83
e 23 37
e 23 54
e 23 68
e 23 90
e 23 93
e 24 32
e 24 39
e 24 48
e 24 51
e 24 58
e 25 27
e 25 33
e 25 52
e 25 58
e 25 73
e 26 39
e 26 63
e 26 70
e 26 73
e 26 100
e 27 36
e 27 43
e 27 53
e 27 85
e 27 99
e 28 31
e 28 34
e 28 63
e 28 73
e 28 79
e 29 54
e 29 60
e 29 71
e 29 77
e 29 84
e 30 52
e 30 56
e 30 57
e 30 71
e 31 34
e 31 70
e 31 81
e 31 100
e 32 34
e 32 39
e 32 40
e 32 42
e 32 54
e 32 78
e 33 36
e 33 45
e 33 48
e 33 56
e 33 64
e 33 66
e 34 35
e 34 45
e 34 52
e 34 55
e 35 43
e 35 81
e 35 82
e 35 83
e 36 68
e 36 72
e 36 94
e 36 96
e 37 48
e 37 53
e 37 57
e 37 72
e 37 83
e 37 89
e 38 41
e 38 79
e 38 99
e 39 64
e 39 69
e 40 46
e 40 55
e 40 77
e 41 70
e 41 86
e 41 91
e 42 44
e 42 62
e 42 84
e 43 73
e 43 76
e 43 96
e 44 53
e 44 68
e 44 75
e 45 69
e 45 74
e 45 95
e 46 79
e 47 50
e 47 81
e 49 66
e 49 89
e 50 77
e 50 97
e 51 53
e 51 95
e 52 88
e 52 99
e 53 59
e 53 90
e 54 57
e 54 73
e 55 87
e 55 99
e 56 83
e 56 92
e 57 92
e 57 100
e 58 97
e 60 74
e 61 85
e 63 65
e 65 82
e 66 94
e 67 71
e 68 76
e 69 75
e 70 97
e 71 97
e 72 90
e 73 74
e 74 96
e 75 98
e 76 97
n 10 6
n 27 19
n 30 4
n 35 6
n 37 3
n 38 13
n 45 17
n 50 6
n 51 5
n 52 4
n 58 10
n 60 16
n 61 20
n 64 6
n 66 8
n 68 12
n 70 2
n 73 7
n 75 1
n 79 13
n 80 15
n 82 6
n 84 9
n 87 6
n 90 14
n 93 18
n 94 8
n 96 11
n 98 1
n 100 6
